Minimize
  - 59 y_0 - 49 y_1 - 34 y_2 - 58 y_3 - 18 y_4 - 37 y_5 - 34 y_6 - 51 y_7
   - 32 y_8 - 55 y_9 - 40 y_10 - 28 y_11 - 54 y_12 - 52 y_13 - 39 y_14
   - 47 y_15 - 24 y_16 - 36 y_17 - 54 y_18 - 45 y_19 - 44 y_20 - 27 y_21
   - 46 y_22 - 54 y_23 - 22 y_24 - 45 y_25 - 19 y_26 - 39 y_27 - 26 y_28
   - 25 y_29 - 29 y_30 - 17 y_31 - 35 y_32 - 50 y_33 - 35 y_34 - 24 y_35
   - 34 y_36 - 18 y_37 - 13 y_38 - 25 y_39 - 41 y_40 - 37 y_41 - 12 y_42
   - 22 y_43 - 27 y_44 - 54 y_45 - 57 y_46 - 39 y_47 - 43 y_48 - 61 y_49
   - 37 y_50 - 14 y_51 - 37 y_52 - 28 y_53 - 50 y_54 - 49 y_55 - 54 y_56
   - 44 y_57 - 44 y_58 - 50 y_59 - 65 y_60 - 20 y_61 - 48 y_62 - 48 y_63
   - 48 y_64 - 32 y_65 - 57 y_66 - 37 y_67 - 27 y_68 - 20 y_69 - 38 y_70
   - 53 y_71 - 19 y_72 - 49 y_73 - 19 y_74 - 27 y_75 - 49 y_76 - 12 y_78
   - 28 y_79 - 30 y_80 - 9 y_81 - 11 y_82 - 49 y_83 - 56 y_84 - 52 y_85
   - 12 y_86 - 47 y_87 - 46 y_88 - 51 y_89 - 34 y_90 - 54 y_91 - 52 y_92
   - 16 y_93 - 25 y_94 - 10 y_95 - 40 y_96 - 30 y_97 - 48 y_98 - 11 y_99
   + 3652 Constant
Subject To
 c_0: y_74 = 1
 c_1_0: y_0 + y_46 + y_66 >= 1
 c_1_1: y_1 + y_7 + y_13 + y_25 + y_33 + y_47 + y_71 + y_87 >= 1
 c_1_2: y_2 + y_28 + y_35 + y_36 + y_70 + y_75 + y_90 >= 1
 c_1_3: y_3 + y_13 + y_33 + y_56 >= 1
 c_1_4: y_4 + y_16 + y_31 + y_38 + y_39 + y_42 + y_79 >= 1
 c_1_5: y_5 + y_47 + y_52 >= 1
 c_1_6: y_6 + y_11 + y_41 >= 1
 c_1_7: y_1 + y_7 + y_25 + y_71 + y_89 >= 1
 c_1_8: y_8 + y_24 + y_32 >= 1
 c_1_9: y_9 + y_54 >= 1
 c_1_10: y_10 + y_19 >= 1
 c_1_11: y_6 + y_11 + y_61 + y_69 >= 1
 c_1_12: y_12 + y_76 >= 1
 c_1_13: y_1 + y_3 + y_13 + y_33 + y_71 + y_87 >= 1
 c_1_14: y_14 + y_48 + y_50 + y_63 + y_88 >= 1
 c_1_15: y_15 + y_55 + y_85 + y_92 >= 1
 c_1_16: y_4 + y_16 + y_21 + y_39 + y_79 >= 1
 c_1_17: y_17 + y_65 + y_96 >= 1
 c_1_18: y_18 + y_56 + y_63 >= 1
 c_1_19: y_10 + y_19 + y_23 >= 1
 c_1_20: y_20 + y_64 + y_70 >= 1
 c_1_21: y_16 + y_21 + y_50 + y_79 >= 1
 c_1_22: y_22 + y_57 + y_58 >= 1
 c_1_23: y_19 + y_23 + y_66 + y_91 >= 1
 c_1_24: y_8 + y_24 + y_61 >= 1
 c_1_25: y_1 + y_7 + y_25 + y_47 + y_71 + y_87 >= 1
 c_1_26: y_26 + y_31 + y_43 + y_78 >= 1
 c_1_27: y_27 + y_40 >= 1
 c_1_28: y_2 + y_28 + y_35 + y_36 + y_68 + y_72 + y_74 + y_75 + y_90 + y_93
   >= 1
 c_1_29: y_29 + y_37 + y_53 >= 1
 c_1_30: y_30 + y_68 + y_72 >= 1
 c_1_31: y_4 + y_26 + y_31 + y_42 + y_43 + y_78 >= 1
 c_1_32: y_8 + y_32 >= 1
 c_1_33: y_1 + y_3 + y_13 + y_33 + y_71 + y_87 >= 1
 c_1_34: y_34 + y_47 + y_70 + y_75 >= 1
 c_1_35: y_2 + y_28 + y_35 + y_74 + y_75 >= 1
 c_1_36: y_2 + y_28 + y_36 + y_68 + y_90 >= 1
 c_1_37: y_29 + y_37 + y_53 + y_86 >= 1
 c_1_38: y_4 + y_38 + y_42 + y_82 + y_99 >= 1
 c_1_39: y_4 + y_16 + y_39 + y_79 + y_80 >= 1
 c_1_40: y_27 + y_40 + y_96 >= 1
 c_1_41: y_6 + y_41 >= 1
 c_1_42: y_4 + y_31 + y_38 + y_42 + y_78 + y_82 >= 1
 c_1_43: y_26 + y_31 + y_43 + y_78 >= 1
 c_1_44: y_44 >= 1
 c_1_45: y_45 + y_64 >= 1
 c_1_46: y_0 + y_46 >= 1
 c_1_47: y_1 + y_5 + y_25 + y_34 + y_47 + y_52 + y_87 >= 1
 c_1_48: y_14 + y_48 + y_50 + y_63 >= 1
 c_1_49: y_49 >= 1
 c_1_50: y_14 + y_21 + y_48 + y_50 >= 1
 c_1_51: y_51 + y_72 + y_74 + y_93 >= 1
 c_1_52: y_5 + y_47 + y_52 >= 1
 c_1_53: y_29 + y_37 + y_53 >= 1
 c_1_54: y_9 + y_54 + y_59 >= 1
 c_1_55: y_15 + y_55 + y_62 + y_85 + y_92 >= 1
 c_1_56: y_3 + y_18 + y_56 + y_88 >= 1
 c_1_57: y_22 + y_57 + y_58 >= 1
 c_1_58: y_22 + y_57 + y_58 >= 1
 c_1_59: y_54 + y_59 >= 1
 c_1_60: y_60 >= 1
 c_1_61: y_11 + y_24 + y_61 + y_69 >= 1
 c_1_62: y_55 + y_62 >= 1
 c_1_63: y_14 + y_18 + y_48 + y_63 + y_88 >= 1
 c_1_64: y_20 + y_45 + y_64 >= 1
 c_1_65: y_17 + y_65 + y_94 + y_97 >= 1
 c_1_66: y_0 + y_23 + y_66 + y_91 >= 1
 c_1_67: y_67 >= 1
 c_1_68: y_28 + y_30 + y_36 + y_68 + y_72 + y_74 + y_90 >= 1
 c_1_69: y_11 + y_61 + y_69 >= 1
 c_1_70: y_2 + y_20 + y_34 + y_70 >= 1
 c_1_71: y_1 + y_7 + y_13 + y_25 + y_33 + y_71 + y_87 >= 1
 c_1_72: y_28 + y_30 + y_51 + y_68 + y_72 + y_74 + y_93 >= 1
 c_1_73: y_73 >= 1
 c_1_74: y_28 + y_35 + y_51 + y_68 + y_72 + y_74 + y_93 >= 1
 c_1_75: y_2 + y_28 + y_34 + y_35 + y_75 >= 1
 c_1_76: y_12 + y_76 + y_83 >= 1
 c_1_77: y_77 + y_81 + y_95 >= 1
 c_1_78: y_26 + y_31 + y_42 + y_43 + y_78 >= 1
 c_1_79: y_4 + y_16 + y_21 + y_39 + y_79 + y_80 >= 1
 c_1_80: y_39 + y_79 + y_80 >= 1
 c_1_81: y_77 + y_81 + y_86 >= 1
 c_1_82: y_38 + y_42 + y_82 + y_95 + y_99 >= 1
 c_1_83: y_76 + y_83 >= 1
 c_1_84: y_84 + y_85 >= 1
 c_1_85: y_15 + y_55 + y_84 + y_85 + y_92 >= 1
 c_1_86: y_37 + y_81 + y_86 >= 1
 c_1_87: y_1 + y_13 + y_25 + y_33 + y_47 + y_71 + y_87 >= 1
 c_1_88: y_14 + y_56 + y_63 + y_88 >= 1
 c_1_89: y_7 + y_89 >= 1
 c_1_90: y_2 + y_28 + y_36 + y_68 + y_90 >= 1
 c_1_91: y_23 + y_66 + y_91 >= 1
 c_1_92: y_15 + y_55 + y_85 + y_92 >= 1
 c_1_93: y_28 + y_51 + y_72 + y_74 + y_93 >= 1
 c_1_94: y_65 + y_94 >= 1
 c_1_95: y_77 + y_82 + y_95 + y_99 >= 1
 c_1_96: y_17 + y_40 + y_96 >= 1
 c_1_97: y_65 + y_97 >= 1
 c_1_98: y_98 >= 1
 c_1_99: y_38 + y_82 + y_95 + y_99 >= 1
Bounds
 Constant = 1
Binaries
 y_0 y_1 y_2 y_3 y_4 y_5 y_6 y_7 y_8 y_9 y_10 y_11 y_12 y_13 y_14 y_15 y_16
 y_17 y_18 y_19 y_20 y_21 y_22 y_23 y_24 y_25 y_26 y_27 y_28 y_29 y_30 y_31
 y_32 y_33 y_34 y_35 y_36 y_37 y_38 y_39 y_40 y_41 y_42 y_43 y_44 y_45 y_46
 y_47 y_48 y_49 y_50 y_51 y_52 y_53 y_54 y_55 y_56 y_57 y_58 y_59 y_60 y_61
 y_62 y_63 y_64 y_65 y_66 y_67 y_68 y_69 y_70 y_71 y_72 y_73 y_74 y_75 y_76
 y_77 y_78 y_79 y_80 y_81 y_82 y_83 y_84 y_85 y_86 y_87 y_88 y_89 y_90 y_91
 y_92 y_93 y_94 y_95 y_96 y_97 y_98 y_99
End
